; benchmark generated from python API
(set-info :status unknown)
(declare-datatypes ((IntState 0)) (((Mk1 (val1 Int)) (Mk2 (val2 Int)))))
 (declare-fun |c_mult_#in~n| () Int)
(declare-fun |c_mult_#res| () Int)
(declare-fun c_mult_~n () Int)
(assert
 (let (($x35 (exists ((mult_~n_st IntState) (val!107 Int) )(exists ((v_nnf_108_st IntState) (val!108 Int) )(let (($x19 (<= (+ (* 2 (val2 mult_~n_st)) (* 2 (val2 v_nnf_108_st)) 1) |c_mult_#res|)))
 (let (($x154 (and $x19 (<= |c_mult_#in~n| (val2 mult_~n_st)) (<= (val2 mult_~n_st) (val2 v_nnf_108_st)))))
 (let (($x52 (not (= v_nnf_108_st (Mk1 val!108)))))
 (let (($x14 (not (= mult_~n_st (Mk1 val!107)))))
 (and $x14 $x52 $x154))))))
 )
 ))
 (let (($x155 (<= |c_mult_#in~n| c_mult_~n)))
 (let (($x144 (exists ((v_nnf_107 Int) )(let (($x155 (<= |c_mult_#in~n| c_mult_~n)))
 (and (<= (+ (* 2 c_mult_~n) (* 2 v_nnf_107) 1) |c_mult_#res|) (<= c_mult_~n v_nnf_107) $x155)))
 ))
 (and $x144 (not (and $x155 $x35)))))))
(check-sat)
